(declare-fun a_ack!1979 () (_ BitVec 32))
(declare-fun b_ack!1978 () (_ BitVec 64))
(declare-fun FPCHECK_FADD_UNDERFLOW
             ((_ BitVec 64) (_ FloatingPoint 11 53))
             Bool)
(assert (not (bvslt a_ack!1979 #x00000000)))
(assert (not (fp.lt ((_ to_fp 11 53) b_ack!1978) ((_ to_fp 11 53) #x0000000000000000))))
(assert (not (fp.eq ((_ to_fp 11 53) b_ack!1978) ((_ to_fp 11 53) #x0000000000000000))))
(assert (not (bvslt (bvadd #x00000001 a_ack!1979) #x00000000)))
(assert (not (fp.lt ((_ to_fp 11 53) b_ack!1978) ((_ to_fp 11 53) #x0000000000000000))))
(assert (not (fp.eq ((_ to_fp 11 53) b_ack!1978) ((_ to_fp 11 53) #x0000000000000000))))
(assert (not (= #xffffffff a_ack!1979)))
(assert (not (= #x00000000 a_ack!1979)))
(assert (not (= #x00000001 a_ack!1979)))
(assert (let ((a!1 (fp.mul roundNearestTiesToEven
                   ((_ to_fp 11 53) #x4024000000000000)
                   (fp.add roundNearestTiesToEven
                           ((_ to_fp 11 53)
                             roundNearestTiesToEven
                             (bvadd #x00000001 a_ack!1979))
                           ((_ to_fp 11 53) #x3fe0000000000000)))))
  (not (fp.lt (fp.mul roundNearestTiesToEven
                      ((_ to_fp 11 53) b_ack!1978)
                      ((_ to_fp 11 53) b_ack!1978))
              (fp.div roundNearestTiesToEven
                      a!1
                      ((_ to_fp 11 53) #x4005bf0a8b145769))))))
(assert (let ((a!1 ((_ to_fp 11 53)
             roundNearestTiesToEven
             (bvadd #x00000001
                    (bvmul (bvadd #x00000001 a_ack!1979)
                           (bvadd #x00000001 a_ack!1979))
                    a_ack!1979))))
  (fp.gt (fp.mul roundNearestTiesToEven
                 ((_ to_fp 11 53) #x3f20000000000000)
                 ((_ to_fp 11 53) b_ack!1978))
         (fp.add roundNearestTiesToEven
                 a!1
                 ((_ to_fp 11 53) #x3ff0000000000000)))))
(assert (let ((a!1 (fp.mul roundNearestTiesToEven
                   ((_ to_fp 11 53) #x3fe0000000000000)
                   (fp.add roundNearestTiesToEven
                           ((_ to_fp 11 53)
                             roundNearestTiesToEven
                             (bvadd #x00000001 a_ack!1979))
                           ((_ to_fp 11 53) #x3fe0000000000000)))))
(let ((a!2 (fp.eq (fp.abs (fp.add roundNearestTiesToEven
                                  a!1
                                  ((_ to_fp 11 53) #x3fd0000000000000)))
                  ((_ to_fp 11 53) #x0000000000000000))))
  (not a!2))))
(assert (let ((a!1 (fp.mul roundNearestTiesToEven
                   ((_ to_fp 11 53) #x3fe0000000000000)
                   (fp.add roundNearestTiesToEven
                           ((_ to_fp 11 53)
                             roundNearestTiesToEven
                             (bvadd #x00000001 a_ack!1979))
                           ((_ to_fp 11 53) #x3fe0000000000000)))))
(let ((a!2 (fp.div roundNearestTiesToEven
                   (fp.mul roundNearestTiesToEven
                           (fp.add roundNearestTiesToEven
                                   a!1
                                   ((_ to_fp 11 53) #x3fd0000000000000))
                           ((_ to_fp 11 53) #x400921fb54442d18))
                   (fp.add roundNearestTiesToEven
                           a!1
                           ((_ to_fp 11 53) #x3fd0000000000000)))))
  (fp.eq a!2 ((_ to_fp 11 53) #x400921fb54442d18)))))
(assert (let ((a!1 (fp.mul roundNearestTiesToEven
                   ((_ to_fp 11 53) #x3fe0000000000000)
                   (fp.add roundNearestTiesToEven
                           ((_ to_fp 11 53)
                             roundNearestTiesToEven
                             (bvadd #x00000001 a_ack!1979))
                           ((_ to_fp 11 53) #x3fe0000000000000)))))
(let ((a!2 (fp.div roundNearestTiesToEven
                   (fp.mul roundNearestTiesToEven
                           (fp.add roundNearestTiesToEven
                                   a!1
                                   ((_ to_fp 11 53) #x3fd0000000000000))
                           ((_ to_fp 11 53) #x400921fb54442d18))
                   ((_ to_fp 11 53) #x400921fb54442d18))))
  (fp.eq a!2
         (fp.add roundNearestTiesToEven
                 a!1
                 ((_ to_fp 11 53) #x3fd0000000000000))))))
(assert (let ((a!1 (fp.mul roundNearestTiesToEven
                   ((_ to_fp 11 53) #x3fe0000000000000)
                   (fp.add roundNearestTiesToEven
                           ((_ to_fp 11 53)
                             roundNearestTiesToEven
                             (bvadd #x00000001 a_ack!1979))
                           ((_ to_fp 11 53) #x3fe0000000000000)))))
(let ((a!2 (fp.sub roundNearestTiesToEven
                   ((_ to_fp 11 53) b_ack!1978)
                   (fp.mul roundNearestTiesToEven
                           (fp.add roundNearestTiesToEven
                                   a!1
                                   ((_ to_fp 11 53) #x3fd0000000000000))
                           ((_ to_fp 11 53) #x400921fb54442d18)))))
(let ((a!3 (fp.add roundNearestTiesToEven
                   a!2
                   (fp.mul roundNearestTiesToEven
                           (fp.add roundNearestTiesToEven
                                   a!1
                                   ((_ to_fp 11 53) #x3fd0000000000000))
                           ((_ to_fp 11 53) #x400921fb54442d18)))))
  (fp.eq a!3 ((_ to_fp 11 53) b_ack!1978))))))
(assert (let ((a!1 (fp.mul roundNearestTiesToEven
                   ((_ to_fp 11 53) #x3fe0000000000000)
                   (fp.add roundNearestTiesToEven
                           ((_ to_fp 11 53)
                             roundNearestTiesToEven
                             (bvadd #x00000001 a_ack!1979))
                           ((_ to_fp 11 53) #x3fe0000000000000)))))
(let ((a!2 (fp.sub roundNearestTiesToEven
                   ((_ to_fp 11 53) b_ack!1978)
                   (fp.mul roundNearestTiesToEven
                           (fp.add roundNearestTiesToEven
                                   a!1
                                   ((_ to_fp 11 53) #x3fd0000000000000))
                           ((_ to_fp 11 53) #x400921fb54442d18)))))
  (fp.eq (fp.sub roundNearestTiesToEven ((_ to_fp 11 53) b_ack!1978) a!2)
         (fp.mul roundNearestTiesToEven
                 (fp.add roundNearestTiesToEven
                         a!1
                         ((_ to_fp 11 53) #x3fd0000000000000))
                 ((_ to_fp 11 53) #x400921fb54442d18))))))
(assert (let ((a!1 (fp.mul roundNearestTiesToEven
                   ((_ to_fp 11 53) #x4010000000000000)
                   (fp.add roundNearestTiesToEven
                           ((_ to_fp 11 53)
                             roundNearestTiesToEven
                             (bvadd #x00000001 a_ack!1979))
                           ((_ to_fp 11 53) #x3fe0000000000000)))))
(let ((a!2 (fp.mul roundNearestTiesToEven
                   a!1
                   (fp.add roundNearestTiesToEven
                           ((_ to_fp 11 53)
                             roundNearestTiesToEven
                             (bvadd #x00000001 a_ack!1979))
                           ((_ to_fp 11 53) #x3fe0000000000000)))))
(let ((a!3 (fp.div roundNearestTiesToEven
                   (fp.sub roundNearestTiesToEven
                           a!2
                           ((_ to_fp 11 53) #x3ff0000000000000))
                   (fp.mul roundNearestTiesToEven
                           ((_ to_fp 11 53) #x3ff0000000000000)
                           (fp.mul roundNearestTiesToEven
                                   ((_ to_fp 11 53) #x4020000000000000)
                                   ((_ to_fp 11 53) b_ack!1978)))))
      (a!4 (fp.div roundNearestTiesToEven
                   (fp.sub roundNearestTiesToEven
                           ((_ to_fp 11 53) #x8000000000000000)
                           (fp.sub roundNearestTiesToEven
                                   a!2
                                   ((_ to_fp 11 53) #x4022000000000000)))
                   (fp.mul roundNearestTiesToEven
                           ((_ to_fp 11 53) #x4000000000000000)
                           (fp.mul roundNearestTiesToEven
                                   ((_ to_fp 11 53) #x4020000000000000)
                                   ((_ to_fp 11 53) b_ack!1978))))))
  (FPCHECK_FADD_UNDERFLOW
    #x3ff0000000000000
    (fp.mul roundNearestTiesToEven
            (fp.mul roundNearestTiesToEven
                    ((_ to_fp 11 53) #x3ff0000000000000)
                    a!3)
            a!4))))))

(check-sat)
(exit)
